#######################################
### Exact MIP solver for the HHCRSP ###
#######################################
-- Instance file: new-instances/HHCRSP_100_20_17_1.0_R_C.txt
-- Max threads: 4
-- Time limit: 999999 seconds
-- Use initial solution: No
Trivial flow violations prevented generating 46592 variables.
Model exported.
Version identifier: 20.1.0.0 | 2020-11-10 | 9bedb6d68
CPXPARAM_Threads                                 4
CPXPARAM_TimeLimit                               999999
Parallel mode: deterministic, using up to 4 threads for concurrent optimization:
 * Starting dual Simplex on 1 thread...
 * Starting Barrier on 3 threads...
Tried aggregator 1 time.
LP Presolve eliminated 5382 rows and 1328 columns.
Reduced LP has 50084 rows, 47966 columns, and 569667 nonzeros.
Presolve time = 0.56 sec. (149.07 ticks)
Symmetry aggregator did 52985 additional substitutions.

Iteration log . . .
Iteration:     1   Dual objective     =             0.000000
Iteration:   462   Dual objective     =           133.666667

Dual crossover.
  Dual:  Fixing 257 variables.
      256 DMoves:  Infeasibility  8.85957974e-14  Objective  1.34333333e+02
        0 DMoves:  Infeasibility  5.71764858e-14  Objective  1.34333333e+02
  Dual:  Pushed 11, exchanged 246.
  Primal:  Fixing 98 variables.
       97 PMoves:  Infeasibility  2.22044605e-16  Objective  1.34333333e+02
        0 PMoves:  Infeasibility  2.22044605e-16  Objective  1.34333333e+02
  Primal:  Pushed 59, exchanged 39.

Dual simplex solved model.


Solution status from MIP model:
-- Processing time: 0.858 sec.
-- Memory used: 118.211 MB
-- Best bound: inf
-- Obj value: 134.333
-- Gap: inf%
-- Total distance: 403
-- Total tardiness: 0
-- Largest tardiness: 0
